50
    1   492   415
    2   452   464
    3   938   874
    4   876   895
    5   674   748
    6   377   437
    7   366   429
    8   503   543
    9   853   861
   10   845   878
   11   259   355
   12   310   383
   13   642   716
   14   151   184
   15     1    28
   16    88   128
   17   640   725
   18   915   940
   19   874   889
   20   626   530
   21     1    53
   22   683   723
   23   949   876
   24   774   754
   25   852   940
   26   196   116
   27   566   658
   28   843   755
   29   289   253
   30   363   395
   31  1064   993
   32   620   663
   33   746   667
   34   289   313
   35   450   548
   36   356   413
   37   684   724
   38   628   648
   39   657   700
   40   486   434
   41   185   223
   42    81   157
   43     1     6
   44    58   145
   45   904   935
   46   368   294
   47   963   913
   48   683   629
   49   575   495
   50   557   652
22914
